# Node Net
3598   1
 33   1
 54   1
3564   1
2340   1
1261   2
3300   2
900   2
 23   2
2281   2
3563   3
1860   3
3060   3
3546   3
541   3
901   4
3001   4
2701   4
840   4
361   5
3420   5
  3   5
 19   5
 61   6
300   6
 28   6
 26   6
 12   7
1501   7
  2   7
 21   7
2160   8
1801   8
3580   9
3584   9
3480  10
121  10
3554  11
241  11
1441  12
1381  12
540  13
601  13
3577  14
1560  14
660  15
3550  15
 15  16
360  16
2640  17
3561  17
2100  18
 59  18
1320  19
1080  19
